119
1000
93
25
177
174
218
15
197
180
188
40
53
86
195
102
64
40
123
4
186
44
45
46
114
128
50
70
220
61
22
25
171
21
210
4
213
136
149
137
222
242
246
78
45
108
52
119
112
219
212
182
151
116
215
194
41
153
98
39
176
239
142
193
217
28
68
152
31
178
177
215
225
171
136
57
44
201
26
35
171
62
118
37
195
200
13
192
237
136
232
87
45
157
68
158
1
249
10
230
148
246
186
216
204
111
119
83
190
83
104
101
212
61
183
56
6
141
98
67
206
